NAME : XML100_3141_07
DIMENSION : 101
NB_CLUSTERS : 24
CLUSTERING_ALG : KMeans
CLUSTERING_PARAMS : k(23)
CLUSTERS
1 0
2 36 56 91 96
3 3 23 29 30 81
4 80 84
5 10 43 90
6 1 27 52 69 70 93 95
7 13 16 32 33 99
8 20 40
9 2 7 35 39 65 94
10 5 12 14 54 73 76
11 24 41 53 100
12 9 17 21 58 61
13 8 18 45 47 50 59 68 75 82 89
14 31 55 67 87
15 4 34 92
16 6 72
17 22 62 77 88 98
18 37 38 42 57 64 66 97
19 11 26 63 78
20 49 83 86
21 25 48 51 60
22 46 85
23 28 44 79
24 15 19 71 74
EOF